n_res = 4;
rc = [ 10, 6, 8, 12 ];
n_tasks = 30;
d = [ 5, 3, 5, 3, 10, 5, 1, 4, 1, 1, 8, 8, 8, 7, 6, 5, 8, 1, 3, 2, 6, 3, 7, 1, 9, 9, 3, 10, 9, 5 ];
rr = [| 7, 6, 0, 0, 0, 0, 0, 0, 0, 0, 0, 0, 0, 0, 0, 0, 9, 0, 0, 0, 0, 0, 0, 0, 0, 1, 0, 0, 0, 0
      | 0, 0, 0, 0, 0, 0, 0, 0, 5, 0, 0, 0, 0, 0, 0, 0, 0, 0, 0, 0, 0, 0, 0, 0, 0, 0, 0, 1, 6, 0
      | 0, 0, 7, 1, 0, 0, 7, 0, 0, 0, 1, 0, 0, 6, 0, 0, 0, 0, 0, 6, 0, 0, 4, 4, 0, 0, 6, 0, 0, 0
      | 0, 0, 0, 0, 5, 9, 0, 5, 0, 1, 0, 8, 7, 0, 1, 6, 0, 2, 7, 0, 10, 2, 0, 0, 5, 0, 0, 0, 0, 4 |];
suc = [ { 2 }, 
        { 1 }, 
        { 4 }, 
        { 3 }, 
        { 6 }, 
        { 5 }, 
        { 8 }, 
        { 7 }, 
        { 10 }, 
        { 9 }, 
        { 12 }, 
        { 11 }, 
        { 14 }, 
        { 13 }, 
        { 16 }, 
        { 15 }, 
        { 18 }, 
        { 17 }, 
        { 20 }, 
        { 19 }, 
        { 22 }, 
        { 21 }, 
        { 24 }, 
        { 23 }, 
        { 26 }, 
        { 25 }, 
        { 28 }, 
        { 27 }, 
        { 30 }, 
        { 29 }]; 
